152
10000
1921
4065
4220
297
1320
832
27
59
2604
2019
1202
4043
1931
761
6568
6702
6
460
2692
1958
59
2538
2631
3298
4221
152
3331
2144
6251
4912
2679
3153
6877
697
2410
1349
371
3329
4331
796
3461
294
4884
630
190
6266
357
2593
3756
1045
6490
5444
2310
1692
1097
6683
2680
2858
6669
3766
3122
759
1652
971
1485
4556
3432
6383
6749
4695
1262
7147
3082
5138
2803
3582
1866
7407
7142
2712
2854
830
5658
4624
3464
151
4239
3202
1046
4048
661
6058
1993
8
1624
2021
1586
3693
5376
2388
4032
5505
4875
5778
5620
5669
905
1420
1440
135
2297
2484
6542
2160
2031
2759
5116
327
873
4245
741
2780
1160
2079
2965
3615
34
3458
6047
2453
819
5533
5024
162
3364
7320
4342
802
1520
6801
6669
594
3417
2546
642
2205
5591
1132
3707
1808
721
1886
